n=214;
k_min=7;
k_max=7;
M=[| 162, 145, 146, 141, 127, 129, 146
 | 163, 142, 152, 141, 128, 124, 147
 | 163, 143, 153, 140, 127, 124, 146
 | 164, 145, 150, 140, 127, 125, 146
 | 164, 144, 152, 139, 127, 125, 146
 | 164, 145, 150, 139, 128, 125, 144
 | 164, 145, 152, 138, 127, 125, 146
 | 163, 145, 152, 137, 127, 126, 146
 | 162, 143, 149, 142, 128, 124, 148
 | 164, 146, 150, 138, 126, 126, 146
 | 165, 146, 151, 138, 127, 125, 144
 | 165, 147, 149, 137, 126, 127, 145
 | 166, 145, 151, 138, 127, 125, 145
 | 164, 146, 151, 137, 126, 127, 145
 | 164, 147, 150, 136, 126, 128, 145
 | 164, 147, 151, 137, 126, 127, 145
 | 165, 148, 149, 136, 126, 128, 145
 | 161, 145, 146, 140, 127, 129, 149
 | 166, 145, 148, 138, 124, 127, 148
 | 163, 146, 150, 139, 127, 126, 146
 | 164, 147, 149, 138, 126, 127, 145
 | 160, 144, 148, 138, 127, 129, 150
 | 165, 148, 148, 137, 126, 127, 145
 | 165, 147, 149, 137, 126, 127, 145
 | 164, 145, 151, 138, 126, 126, 147
 | 164, 147, 150, 137, 126, 127, 146
 | 164, 146, 150, 139, 127, 126, 146
 | 165, 147, 150, 137, 126, 126, 145
 | 164, 148, 150, 137, 126, 128, 145
 | 164, 146, 150, 138, 126, 126, 146
 | 165, 148, 149, 136, 126, 128, 145
 | 164, 147, 151, 136, 126, 128, 145
 | 164, 147, 150, 137, 126, 127, 145
 | 164, 148, 150, 136, 126, 128, 145
 | 165, 148, 149, 136, 125, 128, 145
 | 163, 146, 150, 138, 126, 126, 147
 | 163, 145, 147, 140, 127, 126, 148
 | 166, 148, 149, 136, 126, 127, 145
 | 163, 146, 146, 137, 125, 131, 149
 | 163, 146, 146, 137, 125, 131, 149
 | 165, 148, 149, 136, 126, 128, 145
 | 165, 148, 150, 136, 126, 128, 145
 | 163, 146, 150, 138, 126, 126, 147
 | 164, 148, 145, 136, 125, 131, 148
 | 164, 148, 149, 136, 126, 128, 146
 | 165, 146, 146, 138, 126, 127, 148
 | 163, 147, 149, 137, 126, 127, 147
 | 164, 147, 144, 136, 125, 131, 149
 | 163, 150, 144, 135, 124, 133, 148
 | 164, 146, 147, 138, 126, 126, 148
 | 166, 148, 144, 134, 124, 132, 148
 | 163, 148, 147, 136, 125, 128, 148
 | 160, 148, 151, 135, 125, 128, 150
 | 161, 149, 150, 134, 125, 128, 149
 | 161, 149, 151, 134, 124, 128, 149
 | 160, 151, 151, 133, 125, 131, 147
 | 163, 146, 151, 138, 127, 127, 146
 | 165, 147, 150, 137, 126, 126, 145
 | 165, 144, 152, 139, 127, 125, 146
 | 165, 145, 151, 139, 127, 125, 146
 | 165, 146, 150, 137, 124, 127, 148
 | 162, 145, 147, 142, 127, 126, 148
 | 163, 148, 145, 137, 125, 131, 148
 | 162, 146, 144, 138, 126, 131, 149
 | 163, 149, 146, 136, 125, 131, 148
 | 163, 147, 146, 137, 124, 129, 149
 | 161, 151, 145, 135, 124, 133, 148
 | 161, 151, 145, 134, 124, 133, 148
 | 161, 151, 145, 135, 124, 133, 148
 | 163, 151, 144, 134, 123, 134, 148
 | 157, 140, 151, 146, 131, 124, 148
 | 162, 144, 148, 142, 128, 126, 146
 | 164, 144, 152, 140, 128, 124, 145
 | 164, 144, 151, 140, 128, 124, 146
 | 164, 144, 151, 139, 128, 125, 145
 | 164, 144, 151, 139, 128, 125, 145
 | 163, 144, 150, 141, 128, 124, 146
 | 163, 145, 150, 140, 128, 125, 145
 | 163, 143, 153, 140, 127, 124, 147
 | 162, 145, 150, 141, 129, 125, 145
 | 161, 145, 150, 142, 129, 125, 145
 | 164, 144, 153, 139, 128, 124, 145
 | 166, 144, 151, 139, 127, 124, 146
 | 164, 145, 151, 140, 128, 125, 145
 | 157, 139, 151, 147, 134, 121, 146
 | 164, 145, 151, 139, 127, 125, 146
 | 163, 145, 153, 138, 126, 125, 146
 | 164, 144, 151, 140, 128, 124, 146
 | 164, 145, 151, 139, 127, 125, 145
 | 163, 146, 151, 139, 128, 126, 144
 | 166, 148, 146, 137, 126, 128, 145
 | 164, 146, 151, 138, 126, 126, 146
 | 162, 146, 152, 137, 125, 127, 147
 | 163, 145, 152, 138, 126, 125, 147
 | 164, 146, 151, 137, 127, 126, 145
 | 164, 146, 148, 139, 126, 126, 147
 | 165, 148, 146, 136, 126, 129, 146
 | 161, 150, 149, 134, 126, 131, 145
 | 162, 148, 151, 136, 127, 127, 146
 | 163, 148, 150, 136, 125, 127, 147
 | 162, 149, 151, 135, 125, 128, 147
 | 160, 152, 147, 134, 126, 131, 147
 | 158, 152, 150, 131, 124, 134, 147
 | 157, 150, 141, 134, 126, 140, 149
 | 159, 150, 143, 134, 124, 136, 151
 | 148, 154, 143, 126, 127, 156, 144
 | 146, 148, 142, 136, 134, 149, 142
 | 144, 149, 141, 131, 132, 155, 144
 | 149, 166, 148, 121, 118, 140, 155
 | 148, 156, 151, 124, 123, 143, 152
 | 144, 151, 141, 125, 126, 166, 143
 | 144, 151, 141, 126, 127, 165, 143
 | 145, 152, 142, 126, 126, 159, 145
 | 164, 144, 150, 140, 127, 125, 146
 | 163, 146, 148, 140, 128, 127, 145
 | 163, 145, 149, 141, 128, 126, 146
 | 163, 145, 149, 141, 128, 126, 146
 | 161, 143, 149, 144, 130, 124, 146
 | 163, 144, 150, 141, 128, 124, 146
 | 164, 143, 150, 141, 128, 124, 146
 | 163, 145, 149, 140, 127, 126, 146
 | 164, 145, 151, 139, 128, 125, 145
 | 164, 144, 151, 139, 127, 125, 146
 | 163, 143, 151, 141, 128, 124, 146
 | 163, 146, 150, 138, 126, 127, 146
 | 163, 147, 148, 139, 127, 127, 146
 | 164, 147, 149, 137, 126, 127, 146
 | 166, 148, 147, 132, 122, 129, 153
 | 163, 149, 149, 133, 123, 128, 153
 | 158, 153, 148, 128, 120, 132, 156
 | 155, 157, 148, 124, 119, 138, 155
 | 147, 155, 143, 127, 126, 151, 148
 | 163, 144, 149, 141, 128, 125, 146
 | 162, 143, 148, 143, 129, 125, 146
 | 164, 144, 150, 140, 127, 125, 145
 | 163, 146, 148, 140, 128, 126, 146
 | 163, 146, 150, 138, 127, 127, 145
 | 164, 145, 150, 139, 128, 125, 145
 | 164, 145, 152, 139, 128, 125, 144
 | 164, 145, 151, 139, 128, 125, 145
 | 164, 144, 150, 141, 128, 124, 146
 | 164, 146, 150, 138, 127, 126, 146
 | 164, 146, 150, 138, 127, 126, 145
 | 162, 145, 150, 140, 128, 125, 146
 | 163, 148, 150, 135, 125, 128, 147
 | 164, 147, 148, 138, 127, 128, 145
 | 166, 145, 151, 137, 124, 126, 147
 | 164, 145, 150, 139, 127, 125, 146
 | 164, 146, 150, 139, 127, 126, 146
 | 163, 149, 148, 137, 127, 129, 144
 | 162, 146, 149, 140, 128, 125, 146
 | 162, 146, 145, 139, 126, 130, 149
 | 163, 147, 151, 135, 124, 129, 148
 | 164, 145, 151, 138, 126, 125, 147
 | 164, 148, 148, 137, 126, 128, 146
 | 164, 147, 150, 137, 125, 127, 146
 | 163, 146, 150, 138, 126, 126, 148
 | 163, 147, 145, 136, 125, 131, 149
 | 166, 145, 147, 139, 126, 125, 148
 | 165, 146, 147, 139, 126, 125, 148
 | 164, 147, 147, 138, 126, 127, 148
 | 163, 146, 150, 137, 124, 128, 148
 | 161, 145, 146, 140, 127, 129, 149
 | 146, 136, 142, 166, 142, 122, 141
 | 160, 155, 148, 128, 122, 133, 150
 | 153, 166, 143, 125, 121, 145, 144
 | 151, 162, 143, 126, 124, 148, 143
 | 150, 155, 150, 123, 123, 147, 149
 | 152, 151, 154, 126, 126, 138, 150
 | 151, 157, 150, 122, 121, 142, 152
 | 149, 158, 146, 123, 122, 147, 151
 | 142, 137, 140, 145, 166, 128, 139
 | 142, 137, 140, 145, 165, 128, 139
 | 148, 158, 146, 123, 122, 149, 150
 | 166, 150, 149, 131, 123, 128, 149
 | 152, 156, 150, 123, 120, 144, 151
 | 162, 148, 149, 133, 122, 129, 155
 | 161, 150, 149, 131, 121, 131, 154
 | 160, 147, 150, 135, 122, 127, 156
 | 160, 147, 151, 133, 122, 128, 156
 | 152, 142, 166, 135, 126, 125, 149
 | 153, 153, 153, 126, 118, 127, 166
 | 150, 158, 153, 123, 119, 136, 157
 | 148, 161, 149, 123, 120, 140, 154
 | 145, 145, 153, 139, 134, 131, 149
 | 153, 138, 150, 151, 139, 123, 142
 | 151, 137, 147, 157, 139, 122, 143
 | 164, 146, 149, 138, 126, 127, 148
 | 166, 144, 143, 139, 128, 125, 151
 | 155, 144, 146, 146, 131, 126, 150
 | 155, 146, 155, 137, 124, 127, 154
 | 149, 148, 161, 133, 125, 126, 156
 | 150, 147, 165, 131, 123, 127, 154
 | 148, 147, 158, 137, 127, 126, 153
 | 149, 147, 159, 136, 126, 127, 153
 | 150, 147, 166, 130, 123, 126, 154
 | 151, 149, 163, 129, 122, 128, 154
 | 149, 148, 162, 132, 123, 126, 156
 | 150, 148, 164, 131, 123, 126, 155
 | 148, 148, 161, 133, 125, 125, 156
 | 148, 147, 159, 135, 127, 126, 155
 | 148, 147, 148, 133, 138, 138, 145
 | 148, 147, 160, 134, 127, 126, 154
 | 148, 146, 157, 138, 128, 127, 153
 | 148, 148, 161, 133, 125, 126, 156
 | 148, 148, 157, 136, 126, 127, 154
 | 148, 148, 158, 135, 126, 127, 155
 | 146, 141, 150, 148, 140, 127, 146
 | 150, 149, 162, 130, 122, 127, 156
 | 151, 147, 161, 134, 124, 126, 154
 | 148, 147, 158, 137, 127, 126, 153
 | 149, 146, 159, 136, 127, 127, 152
 | 149, 147, 159, 136, 127, 128, 152
 | 149, 147, 159, 136, 126, 128, 152 |];
 P=[1, 1, 1, 1, 1, 1, 1, 1, 1, 1, 1, 1, 1, 1, 1, 1, 1, 1, 1, 1, 1, 1, 1, 1, 1, 1, 1, 1, 1, 1, 1, 1, 1, 1, 1, 1, 1, 1, 1, 1, 1, 1, 1, 1, 1, 1, 1, 1, 1, 1, 1, 1, 1, 1, 1, 1, 1, 1, 1, 1, 1, 1, 1, 1, 1, 1, 1, 1, 1, 1, 1, 1, 1, 1, 1, 1, 1, 1, 1, 1, 1, 1, 1, 1, 1, 1, 1, 1, 1, 1, 1, 1, 1, 1, 1, 1, 1, 1, 1, 1, 1, 1, 1, 1, 1, 6, 6, 6, 2, 2, 6, 6, 6, 1, 1, 1, 1, 1, 1, 1, 1, 1, 1, 1, 1, 1, 1, 1, 1, 1, 2, 6, 1, 1, 1, 1, 1, 1, 1, 1, 1, 1, 1, 1, 1, 1, 1, 1, 1, 1, 1, 1, 1, 1, 1, 1, 1, 1, 1, 1, 1, 1, 1, 4, 1, 2, 2, 2, 2, 2, 2, 5, 5, 2, 1, 2, 1, 1, 1, 1, 3, 7, 2, 2, 3, 4, 4, 1, 1, 1, 7, 3, 3, 3, 3, 3, 3, 3, 3, 3, 3, 2, 3, 3, 3, 3, 3, 3, 3, 3, 3, 3, 3, 3 ];